num_bp = 1;
nres = 90;
ncoup = 9;
nhosp = 9;
max_rpref_len = 15;
max_hpref_len = 52;
rpref = [|8,8,8,0,0,0,0,0,0,0,0,0,0,0,0,0
     |9,6,2,0,0,0,0,0,0,0,0,0,0,0,0,0
     |8,8,7,7,8,7,2,8,2,7,2,2,8,7,2,0
     |1,5,1,5,8,8,1,7,5,7,8,7,2,2,2,0
     |9,9,9,8,8,8,1,0,0,0,0,0,0,0,0,0
     |4,7,8,4,7,8,4,0,0,0,0,0,0,0,0,0
     |0,0,0,0,0,0,0,0,0,0,0,0,0,0,0,0
     |0,0,0,0,0,0,0,0,0,0,0,0,0,0,0,0
     |7,7,6,6,7,3,3,6,3,2,2,2,0,0,0,0
     |8,2,8,2,5,8,2,5,5,8,2,5,0,0,0,0
     |8,1,8,1,9,8,9,1,9,0,0,0,0,0,0,0
     |8,8,9,9,8,6,9,6,6,0,0,0,0,0,0,0
     |0,0,0,0,0,0,0,0,0,0,0,0,0,0,0,0
     |0,0,0,0,0,0,0,0,0,0,0,0,0,0,0,0
     |6,8,3,6,8,3,6,8,3,0,0,0,0,0,0,0
     |6,6,6,1,1,1,8,8,8,0,0,0,0,0,0,0
     |1,1,5,5,0,0,0,0,0,0,0,0,0,0,0,0
     |4,8,4,8,0,0,0,0,0,0,0,0,0,0,0,0
     |9,3,8,5,0,0,0,0,0,0,0,0,0,0,0,0
     |2,8,0,0,0,0,0,0,0,0,0,0,0,0,0,0
     |3,8,0,0,0,0,0,0,0,0,0,0,0,0,0,0
     |5,8,3,0,0,0,0,0,0,0,0,0,0,0,0,0
     |3,2,0,0,0,0,0,0,0,0,0,0,0,0,0,0
     |8,7,0,0,0,0,0,0,0,0,0,0,0,0,0,0
     |1,6,7,0,0,0,0,0,0,0,0,0,0,0,0,0
     |8,2,0,0,0,0,0,0,0,0,0,0,0,0,0,0
     |8,6,0,0,0,0,0,0,0,0,0,0,0,0,0,0
     |4,7,6,0,0,0,0,0,0,0,0,0,0,0,0,0
     |4,6,9,0,0,0,0,0,0,0,0,0,0,0,0,0
     |7,9,2,0,0,0,0,0,0,0,0,0,0,0,0,0
     |7,8,6,0,0,0,0,0,0,0,0,0,0,0,0,0
     |9,6,2,8,0,0,0,0,0,0,0,0,0,0,0,0
     |3,8,6,0,0,0,0,0,0,0,0,0,0,0,0,0
     |9,7,8,6,0,0,0,0,0,0,0,0,0,0,0,0
     |2,8,7,4,0,0,0,0,0,0,0,0,0,0,0,0
     |8,6,0,0,0,0,0,0,0,0,0,0,0,0,0,0
     |5,7,8,0,0,0,0,0,0,0,0,0,0,0,0,0
     |9,2,0,0,0,0,0,0,0,0,0,0,0,0,0,0
     |4,8,2,0,0,0,0,0,0,0,0,0,0,0,0,0
     |3,8,0,0,0,0,0,0,0,0,0,0,0,0,0,0
     |6,9,2,0,0,0,0,0,0,0,0,0,0,0,0,0
     |8,7,1,0,0,0,0,0,0,0,0,0,0,0,0,0
     |7,9,0,0,0,0,0,0,0,0,0,0,0,0,0,0
     |8,3,0,0,0,0,0,0,0,0,0,0,0,0,0,0
     |4,2,3,0,0,0,0,0,0,0,0,0,0,0,0,0
     |2,3,0,0,0,0,0,0,0,0,0,0,0,0,0,0
     |6,8,3,1,0,0,0,0,0,0,0,0,0,0,0,0
     |8,9,0,0,0,0,0,0,0,0,0,0,0,0,0,0
     |9,6,3,4,2,0,0,0,0,0,0,0,0,0,0,0
     |2,6,8,0,0,0,0,0,0,0,0,0,0,0,0,0
     |6,8,0,0,0,0,0,0,0,0,0,0,0,0,0,0
     |9,8,7,0,0,0,0,0,0,0,0,0,0,0,0,0
     |2,8,0,0,0,0,0,0,0,0,0,0,0,0,0,0
     |3,9,4,0,0,0,0,0,0,0,0,0,0,0,0,0
     |4,3,8,6,0,0,0,0,0,0,0,0,0,0,0,0
     |6,8,3,0,0,0,0,0,0,0,0,0,0,0,0,0
     |6,5,0,0,0,0,0,0,0,0,0,0,0,0,0,0
     |0,0,0,0,0,0,0,0,0,0,0,0,0,0,0,0
     |5,8,0,0,0,0,0,0,0,0,0,0,0,0,0,0
     |8,0,0,0,0,0,0,0,0,0,0,0,0,0,0,0
     |6,8,3,0,0,0,0,0,0,0,0,0,0,0,0,0
     |6,3,0,0,0,0,0,0,0,0,0,0,0,0,0,0
     |6,3,8,0,0,0,0,0,0,0,0,0,0,0,0,0
     |5,2,0,0,0,0,0,0,0,0,0,0,0,0,0,0
     |5,8,0,0,0,0,0,0,0,0,0,0,0,0,0,0
     |4,7,6,0,0,0,0,0,0,0,0,0,0,0,0,0
     |4,9,0,0,0,0,0,0,0,0,0,0,0,0,0,0
     |6,8,3,0,0,0,0,0,0,0,0,0,0,0,0,0
     |8,5,6,4,0,0,0,0,0,0,0,0,0,0,0,0
     |2,3,0,0,0,0,0,0,0,0,0,0,0,0,0,0
     |3,1,2,0,0,0,0,0,0,0,0,0,0,0,0,0
     |6,4,3,7,0,0,0,0,0,0,0,0,0,0,0,0
     |5,4,7,8,0,0,0,0,0,0,0,0,0,0,0,0
     |8,9,6,1,0,0,0,0,0,0,0,0,0,0,0,0
     |3,6,1,0,0,0,0,0,0,0,0,0,0,0,0,0
     |5,6,8,0,0,0,0,0,0,0,0,0,0,0,0,0
     |4,7,6,9,0,0,0,0,0,0,0,0,0,0,0,0
     |5,6,3,0,0,0,0,0,0,0,0,0,0,0,0,0
     |2,4,0,0,0,0,0,0,0,0,0,0,0,0,0,0
     |6,8,0,0,0,0,0,0,0,0,0,0,0,0,0,0
     |8,5,0,0,0,0,0,0,0,0,0,0,0,0,0,0
     |5,1,0,0,0,0,0,0,0,0,0,0,0,0,0,0
     |9,2,4,0,0,0,0,0,0,0,0,0,0,0,0,0
     |6,8,1,7,0,0,0,0,0,0,0,0,0,0,0,0
     |7,6,0,0,0,0,0,0,0,0,0,0,0,0,0,0
     |7,5,3,0,0,0,0,0,0,0,0,0,0,0,0,0
     |7,6,3,0,0,0,0,0,0,0,0,0,0,0,0,0
     |9,8,3,6,0,0,0,0,0,0,0,0,0,0,0,0
     |8,9,0,0,0,0,0,0,0,0,0,0,0,0,0,0
     |2,1,0,0,0,0,0,0,0,0,0,0,0,0,0,0|];
rpref_len = [3,3,15,15,7,7,0,0,12,12,9,9,0,0,9,9,4,4,4,2,2,3,2,2,3,2,2,3,3,3,3,4,3,4,4,2,3,2,3,2,3,3,2,2,3,2,4,2,5,3,2,3,2,3,4,3,2,0,2,1,3,2,3,2,2,3,2,3,4,2,3,4,4,4,3,3,4,3,2,2,2,2,3,4,2,3,3,4,2,2];
hpref = [|74,11,47,42,17,82,84,90,5,71,25,4,16,75,0,0,0,0,0,0,0,0,0,0,0,0,0,0,0,0,0,0,0,0,0,0,0,0,0,0,0,0,0,0,0,0,0,0,0,0,0,0
     |50,90,41,64,2,83,32,4,53,70,30,26,79,3,49,10,35,45,20,46,9,71,39,23,38,0,0,0,0,0,0,0,0,0,0,0,0,0,0,0,0,0,0,0,0,0,0,0,0,0,0,0
     |78,72,21,56,44,88,70,22,61,47,46,19,55,33,62,45,68,86,9,49,75,40,23,87,71,54,15,63,0,0,0,0,0,0,0,0,0,0,0,0,0,0,0,0,0,0,0,0,0,0,0,0
     |83,49,73,67,79,69,66,6,54,18,77,39,35,28,45,72,29,55,0,0,0,0,0,0,0,0,0,0,0,0,0,0,0,0,0,0,0,0,0,0,0,0,0,0,0,0,0,0,0,0,0,0
     |78,64,82,10,19,4,65,22,69,76,73,57,81,59,86,17,37,0,0,0,0,0,0,0,0,0,0,0,0,0,0,0,0,0,0,0,0,0,0,0,0,0,0,0,0,0,0,0,0,0,0,0
     |12,9,29,36,57,15,88,28,2,68,51,61,32,49,74,50,33,76,69,85,56,47,66,62,16,75,78,34,25,77,63,84,41,80,31,55,87,27,72,0,0,0,0,0,0,0,0,0,0,0,0,0
     |31,28,4,77,52,66,42,85,37,30,73,6,24,25,72,87,84,86,35,34,3,9,43,0,0,0,0,0,0,0,0,0,0,0,0,0,0,0,0,0,0,0,0,0,0,0,0,0,0,0,0,0
     |74,55,33,37,76,51,50,48,53,34,44,39,73,52,40,69,20,56,4,11,88,84,12,81,68,32,60,61,63,47,31,21,22,42,16,35,36,19,89,15,10,24,1,3,65,59,80,5,6,18,26,27
     |5,41,29,43,67,11,54,89,83,38,34,19,88,77,49,12,52,48,74,30,2,32,0,0,0,0,0,0,0,0,0,0,0,0,0,0,0,0,0,0,0,0,0,0,0,0,0,0,0,0,0,0|];
hpref_len = [14,25,28,18,17,39,23,52,22];
hrank = [|0,0,0,12,9,0,0,0,0,0,2,0,0,0,0,13,5,0,0,0,0,0,0,0,11,0,0,0,0,0,0,0,0,0,0,0,0,0,0,0,0,4,0,0,0,0,3,0,0,0,0,0,0,0,0,0,0,0,0,0,0,0,0,0,0,0,0,0,0,0,10,0,0,1,14,0,0,0,0,0,0,6,0,7,0,0,0,0,0,8
     |0,5,14,8,0,0,0,0,21,16,0,0,0,0,0,0,0,0,0,19,0,0,24,0,0,12,0,0,0,11,0,7,0,0,17,0,0,25,23,0,3,0,0,0,18,20,0,0,15,1,0,0,9,0,0,0,0,0,0,0,0,0,0,4,0,0,0,0,0,10,22,0,0,0,0,0,0,0,13,0,0,0,6,0,0,0,0,0,0,2
     |0,0,0,0,0,0,0,0,19,0,0,0,0,0,27,0,0,0,12,0,3,8,23,0,0,0,0,0,0,0,0,0,14,0,0,0,0,0,0,22,0,0,0,5,16,11,10,0,20,0,0,0,0,26,13,4,0,0,0,0,9,15,28,0,0,0,0,17,0,7,25,2,0,0,21,0,0,1,0,0,0,0,0,0,0,18,24,6,0,0
     |0,0,0,0,0,8,0,0,0,0,0,0,0,0,0,0,0,10,0,0,0,0,0,0,0,0,0,14,17,0,0,0,0,0,13,0,0,0,12,0,0,0,0,0,15,0,0,0,2,0,0,0,0,9,18,0,0,0,0,0,0,0,0,0,0,7,4,0,6,0,0,16,3,0,0,0,11,0,5,0,0,0,1,0,0,0,0,0,0,0
     |0,0,0,6,0,0,0,0,0,4,0,0,0,0,0,0,16,0,5,0,0,8,0,0,0,0,0,0,0,0,0,0,0,0,0,0,17,0,0,0,0,0,0,0,0,0,0,0,0,0,0,0,0,0,0,0,12,0,14,0,0,0,0,2,7,0,0,0,9,0,0,0,11,0,0,10,0,1,0,0,13,3,0,0,0,15,0,0,0,0
     |0,9,0,0,0,0,0,0,2,0,0,1,0,0,6,25,0,0,0,0,0,0,0,0,29,0,38,8,3,0,35,13,17,28,0,4,0,0,0,0,33,0,0,0,0,0,22,0,14,16,11,0,0,0,36,21,5,0,0,0,12,24,31,0,0,23,0,10,19,0,0,39,0,15,26,18,30,27,0,34,0,0,0,32,20,0,37,7,0,0
     |0,0,21,3,0,12,0,0,22,0,0,0,0,0,0,0,0,0,0,0,0,0,0,13,14,0,0,2,0,10,1,0,0,20,19,0,9,0,0,0,0,7,23,0,0,0,0,0,0,0,0,5,0,0,0,0,0,0,0,0,0,0,0,0,0,6,0,0,0,0,0,15,11,0,0,0,4,0,0,0,0,0,0,17,8,18,16,0,0,0
     |43,0,44,19,48,49,0,0,0,41,20,23,0,0,40,35,0,50,38,17,32,33,0,42,0,51,52,0,0,0,31,26,3,10,36,37,4,0,12,15,0,34,0,11,0,0,30,8,0,7,6,14,9,0,2,18,0,0,46,27,28,0,29,0,45,0,0,25,16,0,0,0,13,1,0,5,0,0,0,47,24,0,0,22,0,0,0,21,39,0
     |0,21,0,0,1,0,0,0,0,0,6,16,0,0,0,0,0,0,12,0,0,0,0,0,0,0,0,0,3,20,0,22,0,11,0,0,0,10,0,0,2,0,4,0,0,0,0,18,15,0,0,17,0,7,0,0,0,0,0,0,0,0,0,0,0,0,5,0,0,0,0,0,0,19,0,0,14,0,0,0,0,0,9,0,0,0,0,13,8,0|];
hosp_cap = [13,13,11,9,8,11,5,12,8];
